60, 5278
3587, 18
4592, 14
6377, 50
7215, 40
9614, 28
7632, 75
2686, 81
6299, 88
9474, 89
9687, 95
3949, 53
4784, 33
10890, 3
11511, 83
8239, 12
5919, 11
7410, 30
6944, 56
10171, 38
3140, 2
5205, 69
2890, 14
8461, 48
11258, 62
6575, 83
5009, 91
4197, 68
10840, 16
8297, 40
11523, 66
11634, 48
12254, 93
3079, 1
3434, 63
6208, 59
10302, 37
7021, 60
11068, 61
3274, 23
10869, 18
6527, 68
10123, 99
11355, 27
10368, 36
5737, 87
6754, 17
8806, 58
6507, 75
3317, 39
9540, 71
5966, 28
10514, 30
8177, 33
11062, 89
10531, 46
3526, 90
7695, 97
8334, 0
11648, 20
7959, 95